/*********************************************
 * OPL 22.1.1.0 Data
 * Author: hiralab-NUC
 * Creation Date: 2025/04/27 at 13:36:57
 *********************************************/


// 品物の集合 (1から5までの連番)
Items = { 1, 2, 3, 4, 5 };

// 各品物の価値 (Itemsの順番 {1, 2, 3, 4, 5} に対応)
value = [ 4, 2, 1, 2, 10 ];

// 各品物の重さ (Itemsの順番 {1, 2, 3, 4, 5} に対応)
weight = [ 12, 2, 1, 1, 4 ];

// ナップサックの容量
capacity = 15;